data;
param nombreJob := 7;
param nombreRessource := 3;
param duree := 1 4 2 2 3 8 4 3 5 7 6 6 7 7;
param capaciteRessource := 1 8 2 8 3 20;
param besoinRessource : 1 2 3 :=
                    1   2 2 3
                    2   3 3 4
                    3   2 6 8
                    4   2 3 7
                    5   1 5 4
                    6   1 2 9
                    7   1 8 6;
end;

